28438
1 1 1 0 0 0 1 1 0 0 1 1 0 1 1 1 1 0 1 0 0 0 0 0 0 1 1 1 1 0 
18 6 2 27 2 6 15 27 18 28 26 28 13 1 28 18 1 10 27 0 18 16 2 0 10 18 27 14 26 2 6 26 26 16 27 6 14 13 16 16 18 26 6 26 13 26 13 16 14 14 0 16 2 16 13 6 11 26 18 25 26 0 7 10 13 11 2 14 28 25 18 6 6 26 10 13 10 10 13 16 10 0 26 25 26 13 6 2 27 7 28 6 25 25 2 13 11 6 0 28 28 15 25 18 26 0 26 27 27 13 14 6 27 6 11 13 28 7 14 13 14 11 28 6 26 16 2 11 26 0 28 16 25 10 1 14 1 13 28 10 11 27 11 11 25 2 16 15 27 25 27 0 10 0 13 11 2 15 13 13 13 27 10 2 10 27 1 26 1 15 1 10 28 14 26 2 0 10 26 10 2 15 2 6 11 13 28 10 0 2 2 2 6 6 7 6 7 15 10 6 
